c Generated map
c Size: 12 * 12, weights in range: 1 to 10, walls: True, with ratio 0.1
c dim 3 of 5
c
p sp 144 212
c graph contains 144 nodes and 212 arcs
c
a 1 13 10
a 13 1 10
a 3 15 1
a 15 3 1
a 3 4 1
a 4 3 1
a 4 16 3
a 16 4 3
a 4 5 9
a 5 4 9
a 5 17 1
a 17 5 1
a 5 6 9
a 6 5 9
a 6 18 10
a 18 6 10
a 6 7 4
a 7 6 4
a 7 19 5
a 19 7 5
a 7 8 9
a 8 7 9
a 8 20 8
a 20 8 8
a 10 22 6
a 22 10 6
a 10 11 7
a 11 10 7
a 11 23 7
a 23 11 7
a 11 12 1
a 12 11 1
a 12 24 2
a 24 12 2
a 13 25 4
a 25 13 4
a 13 14 2
a 14 13 2
a 14 26 4
a 26 14 4
a 14 15 10
a 15 14 10
a 15 27 8
a 27 15 8
a 15 16 8
a 16 15 8
a 16 28 1
a 28 16 1
a 16 17 2
a 17 16 2
a 17 29 8
a 29 17 8
a 17 18 2
a 18 17 2
a 18 19 2
a 19 18 2
a 19 31 4
a 31 19 4
a 19 20 2
a 20 19 2
a 20 21 5
a 21 20 5
a 21 33 9
a 33 21 9
a 21 22 9
a 22 21 9
a 22 34 7
a 34 22 7
a 22 23 9
a 23 22 9
a 23 35 8
a 35 23 8
a 23 24 7
a 24 23 7
a 24 36 4
a 36 24 4
a 25 26 9
a 26 25 9
a 26 38 4
a 38 26 4
a 26 27 3
a 27 26 3
a 27 28 6
a 28 27 6
a 28 40 2
a 40 28 2
a 28 29 9
a 29 28 9
a 29 41 7
a 41 29 7
a 31 43 1
a 43 31 1
a 33 45 5
a 45 33 5
a 33 34 4
a 34 33 4
a 34 46 5
a 46 34 5
a 34 35 2
a 35 34 2
a 35 47 8
a 47 35 8
a 35 36 3
a 36 35 3
a 36 48 4
a 48 36 4
a 38 50 8
a 50 38 8
a 40 52 7
a 52 40 7
a 40 41 10
a 41 40 10
a 41 53 6
a 53 41 6
a 43 44 1
a 44 43 1
a 44 56 4
a 56 44 4
a 44 45 10
a 45 44 10
a 45 57 9
a 57 45 9
a 45 46 1
a 46 45 1
a 46 58 5
a 58 46 5
a 46 47 1
a 47 46 1
a 47 59 10
a 59 47 10
a 47 48 7
a 48 47 7
a 48 60 2
a 60 48 2
a 49 61 10
a 61 49 10
a 49 50 9
a 50 49 9
a 50 51 5
a 51 50 5
a 51 63 9
a 63 51 9
a 51 52 7
a 52 51 7
a 52 64 3
a 64 52 3
a 52 53 10
a 53 52 10
a 53 65 5
a 65 53 5
a 53 54 2
a 54 53 2
a 54 66 7
a 66 54 7
a 56 68 2
a 68 56 2
a 56 57 7
a 57 56 7
a 57 69 7
a 69 57 7
a 57 58 4
a 58 57 4
a 58 59 6
a 59 58 6
a 59 71 7
a 71 59 7
a 59 60 1
a 60 59 1
a 60 72 1
a 72 60 1
a 61 73 5
a 73 61 5
a 63 75 4
a 75 63 4
a 63 64 1
a 64 63 1
a 64 76 7
a 76 64 7
a 64 65 1
a 65 64 1
a 65 77 8
a 77 65 8
a 65 66 9
a 66 65 9
a 66 78 1
a 78 66 1
a 66 67 6
a 67 66 6
a 67 79 1
a 79 67 1
a 67 68 3
a 68 67 3
a 68 80 7
a 80 68 7
a 68 69 7
a 69 68 7
a 69 81 10
a 81 69 10
a 71 83 1
a 83 71 1
a 71 72 4
a 72 71 4
a 72 84 6
a 84 72 6
a 73 85 8
a 85 73 8
a 73 74 6
a 74 73 6
a 74 86 1
a 86 74 1
a 74 75 7
a 75 74 7
a 75 87 9
a 87 75 9
a 75 76 1
a 76 75 1
a 76 88 2
a 88 76 2
a 76 77 9
a 77 76 9
a 77 89 3
a 89 77 3
a 77 78 8
a 78 77 8
a 78 90 6
a 90 78 6
a 78 79 4
a 79 78 4
a 79 91 10
a 91 79 10
a 79 80 2
a 80 79 2
a 80 92 2
a 92 80 2
a 80 81 9
a 81 80 9
a 81 93 6
a 93 81 6
a 81 82 4
a 82 81 4
a 82 94 5
a 94 82 5
a 82 83 1
a 83 82 1
a 83 95 9
a 95 83 9
a 83 84 4
a 84 83 4
a 84 96 9
a 96 84 9
a 85 97 7
a 97 85 7
a 85 86 6
a 86 85 6
a 86 98 8
a 98 86 8
a 86 87 4
a 87 86 4
a 87 99 10
a 99 87 10
a 87 88 5
a 88 87 5
a 88 100 10
a 100 88 10
a 88 89 6
a 89 88 6
a 89 101 8
a 101 89 8
a 89 90 5
a 90 89 5
a 90 102 9
a 102 90 9
a 90 91 10
a 91 90 10
a 91 103 7
a 103 91 7
a 91 92 3
a 92 91 3
a 92 104 5
a 104 92 5
a 92 93 9
a 93 92 9
a 93 105 6
a 105 93 6
a 93 94 10
a 94 93 10
a 94 106 5
a 106 94 5
a 94 95 7
a 95 94 7
a 95 96 2
a 96 95 2
a 96 108 1
a 108 96 1
a 97 109 1
a 109 97 1
a 97 98 9
a 98 97 9
a 98 99 8
a 99 98 8
a 99 111 1
a 111 99 1
a 99 100 10
a 100 99 10
a 100 112 8
a 112 100 8
a 100 101 5
a 101 100 5
a 101 113 7
a 113 101 7
a 101 102 1
a 102 101 1
a 102 114 7
a 114 102 7
a 102 103 6
a 103 102 6
a 103 115 7
a 115 103 7
a 103 104 2
a 104 103 2
a 104 116 10
a 116 104 10
a 104 105 9
a 105 104 9
a 105 106 4
a 106 105 4
a 106 118 5
a 118 106 5
a 108 120 7
a 120 108 7
a 109 121 8
a 121 109 8
a 111 123 8
a 123 111 8
a 111 112 10
a 112 111 10
a 112 124 5
a 124 112 5
a 112 113 5
a 113 112 5
a 113 114 9
a 114 113 9
a 114 126 9
a 126 114 9
a 114 115 4
a 115 114 4
a 115 127 4
a 127 115 4
a 115 116 3
a 116 115 3
a 116 128 4
a 128 116 4
a 118 130 4
a 130 118 4
a 118 119 7
a 119 118 7
a 119 131 7
a 131 119 7
a 119 120 1
a 120 119 1
a 120 132 5
a 132 120 5
a 121 133 3
a 133 121 3
a 121 122 6
a 122 121 6
a 122 134 6
a 134 122 6
a 122 123 1
a 123 122 1
a 123 135 3
a 135 123 3
a 123 124 1
a 124 123 1
a 124 136 7
a 136 124 7
a 126 138 4
a 138 126 4
a 126 127 9
a 127 126 9
a 127 139 7
a 139 127 7
a 127 128 9
a 128 127 9
a 128 140 5
a 140 128 5
a 128 129 7
a 129 128 7
a 129 141 5
a 141 129 5
a 129 130 5
a 130 129 5
a 130 142 2
a 142 130 2
a 130 131 4
a 131 130 4
a 131 143 4
a 143 131 4
a 131 132 10
a 132 131 10
a 132 144 2
a 144 132 2
a 133 134 3
a 134 133 3
a 134 135 5
a 135 134 5
a 135 136 8
a 136 135 8
a 136 137 4
a 137 136 4
a 137 138 3
a 138 137 3
a 138 139 10
a 139 138 10
a 139 140 1
a 140 139 1
a 140 141 10
a 141 140 10
a 141 142 10
a 142 141 10
a 142 143 5
a 143 142 5
a 143 144 9
a 144 143 9
